# 15287
param n := 25;
param s := 1;
set E :=  (0,5) (0,11) (0,14) (0,18) (0,19) (0,21) (0,24) (1,7) (1,8) (1,20) (2,14) (2,16) (3,9) (4,14) (5,6) (6,13) (7,12) (9,10) (10,18) (11,13) (11,15) (11,22) (12,23) (12,24) (15,16) (15,19) (17,20) (17,23) (18,21) (20,21);
